(declare-const in128 Int)
(declare-const in129 Int)
(declare-const in126 Int)
(declare-const in127 Int)
(declare-const in71 Int)
(declare-const in62 Int)
(declare-const in61 Int)
(declare-const in121 Int)
(declare-const in64 Int)
(declare-const in63 Int)
(declare-const in124 Int)
(declare-const in21 Int)
(declare-const in65 Int)
(declare-const in125 Int)
(declare-const in122 Int)
(declare-const in123 Int)
(declare-const in117 Int)
(declare-const in118 Int)
(declare-const in115 Int)
(declare-const in116 Int)
(declare-const in119 Int)
(declare-const in51 Int)
(declare-const in95 Int)
(declare-const in94 Int)
(declare-const in53 Int)
(declare-const in97 Int)
(declare-const in52 Int)
(declare-const in96 Int)
(declare-const in113 Int)
(declare-const in54 Int)
(declare-const in98 Int)
(declare-const in1110 Int)
(declare-const in114 Int)
(declare-const in111 Int)
(declare-const in112 Int)
(declare-const in106 Int)
(declare-const in107 Int)
(declare-const in104 Int)
(declare-const in105 Int)
(declare-const in91 Int)
(declare-const in93 Int)
(declare-const in108 Int)
(declare-const in109 Int)
(declare-const in92 Int)
(declare-const in84 Int)
(declare-const in83 Int)
(declare-const in42 Int)
(declare-const in86 Int)
(declare-const in41 Int)
(declare-const in85 Int)
(declare-const in102 Int)
(declare-const in43 Int)
(declare-const in87 Int)
(declare-const in103 Int)
(declare-const in02 Int)
(declare-const in101 Int)
(declare-const in01 Int)
(declare-const in04 Int)
(declare-const in03 Int)
(declare-const in06 Int)
(declare-const in05 Int)
(declare-const in08 Int)
(declare-const in07 Int)
(declare-const in09 Int)
(declare-const in82 Int)
(declare-const in81 Int)
(declare-const in73 Int)
(declare-const in010 Int)
(declare-const in72 Int)
(declare-const in011 Int)
(declare-const in31 Int)
(declare-const in75 Int)
(declare-const in74 Int)
(declare-const in1210 Int)
(declare-const in32 Int)
(declare-const in76 Int)
(declare-const in012 Int)
(declare-const in1211 Int)

(assert (and (and (and (and (and (and (and (and (and (and (and (and (and (and (and (and (and (and (and (and (and (and (and (and (and (and (and (and (and (and (and (and (and (and (and (and (and (and (and (and (and (and (and (and (and (and (and (and (and (and (and (and (and (and (and (and (and (and (and (and (and (and (and (and (and (and (and (and (and (and (and (and (and (and (and (and (and (and (and (and (and (and (and (and (and (and (and (and (and (and (and (and (and (and (and (and (and (and (and (and (and (and (and (and (and (and (and (and (and (and (and (and (and (and (and (and (and (and (and (and (and (and (and (and (and (and (and (and (and (and (and  ( <  in02 in01)  ( <  in03 in02))  ( <  in04 in03))  ( <  in05 in04))  ( <  in06 in05))  ( <  in07 in06))  ( <  in08 in07))  ( <  in09 in08))  ( <  in010 in09))  ( <  in011 in010))  ( <  in012 in011))  ( <  ( +  in121 in012) in01))  ( <  ( +  in122 in012) in02))  ( <  ( +  in123 in012) in03))  ( <  ( +  in124 in012) in04))  ( <  ( +  in125 in012) in05))  ( <  ( +  in126 in012) in06))  ( <  ( +  in127 in012) in07))  ( <  ( +  in128 in012) in08))  ( <  ( +  in129 in012) in09))  ( <  ( +  in1210 in012) in010))  ( <  ( +  in1211 in012) in011))  ( <  ( +  in122 in012) ( +  in121 in012)))  ( <  ( +  in123 in012) ( +  in122 in012)))  ( <  ( +  in124 in012) ( +  in123 in012)))  ( <  ( +  in125 in012) ( +  in124 in012)))  ( <  ( +  in126 in012) ( +  in125 in012)))  ( <  ( +  in127 in012) ( +  in126 in012)))  ( <  ( +  in128 in012) ( +  in127 in012)))  ( <  ( +  in129 in012) ( +  in128 in012)))  ( <  ( +  in1210 in012) ( +  in129 in012)))  ( <  ( +  in1211 in012) ( +  in1210 in012)))  ( <  ( +  in111 ( +  in1211 in012)) ( +  in121 in012)))  ( <  ( +  in112 ( +  in1211 in012)) ( +  in122 in012)))  ( <  ( +  in113 ( +  in1211 in012)) ( +  in123 in012)))  ( <  ( +  in114 ( +  in1211 in012)) ( +  in124 in012)))  ( <  ( +  in115 ( +  in1211 in012)) ( +  in125 in012)))  ( <  ( +  in116 ( +  in1211 in012)) ( +  in126 in012)))  ( <  ( +  in117 ( +  in1211 in012)) ( +  in127 in012)))  ( <  ( +  in118 ( +  in1211 in012)) ( +  in128 in012)))  ( <  ( +  in119 ( +  in1211 in012)) ( +  in129 in012)))  ( <  ( +  in1110 ( +  in1211 in012)) ( +  in1210 in012)))  ( <  ( +  in112 ( +  in1211 in012)) ( +  in111 ( +  in1211 in012))))  ( <  ( +  in113 ( +  in1211 in012)) ( +  in112 ( +  in1211 in012))))  ( <  ( +  in114 ( +  in1211 in012)) ( +  in113 ( +  in1211 in012))))  ( <  ( +  in115 ( +  in1211 in012)) ( +  in114 ( +  in1211 in012))))  ( <  ( +  in116 ( +  in1211 in012)) ( +  in115 ( +  in1211 in012))))  ( <  ( +  in117 ( +  in1211 in012)) ( +  in116 ( +  in1211 in012))))  ( <  ( +  in118 ( +  in1211 in012)) ( +  in117 ( +  in1211 in012))))  ( <  ( +  in119 ( +  in1211 in012)) ( +  in118 ( +  in1211 in012))))  ( <  ( +  in1110 ( +  in1211 in012)) ( +  in119 ( +  in1211 in012))))  ( <  ( +  in101 ( +  in1110 ( +  in1211 in012))) ( +  in111 ( +  in1211 in012))))  ( <  ( +  in102 ( +  in1110 ( +  in1211 in012))) ( +  in112 ( +  in1211 in012))))  ( <  ( +  in103 ( +  in1110 ( +  in1211 in012))) ( +  in113 ( +  in1211 in012))))  ( <  ( +  in104 ( +  in1110 ( +  in1211 in012))) ( +  in114 ( +  in1211 in012))))  ( <  ( +  in105 ( +  in1110 ( +  in1211 in012))) ( +  in115 ( +  in1211 in012))))  ( <  ( +  in106 ( +  in1110 ( +  in1211 in012))) ( +  in116 ( +  in1211 in012))))  ( <  ( +  in107 ( +  in1110 ( +  in1211 in012))) ( +  in117 ( +  in1211 in012))))  ( <  ( +  in108 ( +  in1110 ( +  in1211 in012))) ( +  in118 ( +  in1211 in012))))  ( <  ( +  in109 ( +  in1110 ( +  in1211 in012))) ( +  in119 ( +  in1211 in012))))  ( <  ( +  in102 ( +  in1110 ( +  in1211 in012))) ( +  in101 ( +  in1110 ( +  in1211 in012)))))  ( <  ( +  in103 ( +  in1110 ( +  in1211 in012))) ( +  in102 ( +  in1110 ( +  in1211 in012)))))  ( <  ( +  in104 ( +  in1110 ( +  in1211 in012))) ( +  in103 ( +  in1110 ( +  in1211 in012)))))  ( <  ( +  in105 ( +  in1110 ( +  in1211 in012))) ( +  in104 ( +  in1110 ( +  in1211 in012)))))  ( <  ( +  in106 ( +  in1110 ( +  in1211 in012))) ( +  in105 ( +  in1110 ( +  in1211 in012)))))  ( <  ( +  in107 ( +  in1110 ( +  in1211 in012))) ( +  in106 ( +  in1110 ( +  in1211 in012)))))  ( <  ( +  in108 ( +  in1110 ( +  in1211 in012))) ( +  in107 ( +  in1110 ( +  in1211 in012)))))  ( <  ( +  in109 ( +  in1110 ( +  in1211 in012))) ( +  in108 ( +  in1110 ( +  in1211 in012)))))  ( <  ( +  in91 ( +  in109 ( +  in1110 ( +  in1211 in012)))) ( +  in101 ( +  in1110 ( +  in1211 in012)))))  ( <  ( +  in92 ( +  in109 ( +  in1110 ( +  in1211 in012)))) ( +  in102 ( +  in1110 ( +  in1211 in012)))))  ( <  ( +  in93 ( +  in109 ( +  in1110 ( +  in1211 in012)))) ( +  in103 ( +  in1110 ( +  in1211 in012)))))  ( <  ( +  in94 ( +  in109 ( +  in1110 ( +  in1211 in012)))) ( +  in104 ( +  in1110 ( +  in1211 in012)))))  ( <  ( +  in95 ( +  in109 ( +  in1110 ( +  in1211 in012)))) ( +  in105 ( +  in1110 ( +  in1211 in012)))))  ( <  ( +  in96 ( +  in109 ( +  in1110 ( +  in1211 in012)))) ( +  in106 ( +  in1110 ( +  in1211 in012)))))  ( <  ( +  in97 ( +  in109 ( +  in1110 ( +  in1211 in012)))) ( +  in107 ( +  in1110 ( +  in1211 in012)))))  ( <  ( +  in98 ( +  in109 ( +  in1110 ( +  in1211 in012)))) ( +  in108 ( +  in1110 ( +  in1211 in012)))))  ( <  ( +  in92 ( +  in109 ( +  in1110 ( +  in1211 in012)))) ( +  in91 ( +  in109 ( +  in1110 ( +  in1211 in012))))))  ( <  ( +  in93 ( +  in109 ( +  in1110 ( +  in1211 in012)))) ( +  in92 ( +  in109 ( +  in1110 ( +  in1211 in012))))))  ( <  ( +  in94 ( +  in109 ( +  in1110 ( +  in1211 in012)))) ( +  in93 ( +  in109 ( +  in1110 ( +  in1211 in012))))))  ( <  ( +  in95 ( +  in109 ( +  in1110 ( +  in1211 in012)))) ( +  in94 ( +  in109 ( +  in1110 ( +  in1211 in012))))))  ( <  ( +  in96 ( +  in109 ( +  in1110 ( +  in1211 in012)))) ( +  in95 ( +  in109 ( +  in1110 ( +  in1211 in012))))))  ( <  ( +  in97 ( +  in109 ( +  in1110 ( +  in1211 in012)))) ( +  in96 ( +  in109 ( +  in1110 ( +  in1211 in012))))))  ( <  ( +  in98 ( +  in109 ( +  in1110 ( +  in1211 in012)))) ( +  in97 ( +  in109 ( +  in1110 ( +  in1211 in012))))))  ( <  ( +  in81 ( +  in98 ( +  in109 ( +  in1110 ( +  in1211 in012))))) ( +  in91 ( +  in109 ( +  in1110 ( +  in1211 in012))))))  ( <  ( +  in82 ( +  in98 ( +  in109 ( +  in1110 ( +  in1211 in012))))) ( +  in92 ( +  in109 ( +  in1110 ( +  in1211 in012))))))  ( <  ( +  in83 ( +  in98 ( +  in109 ( +  in1110 ( +  in1211 in012))))) ( +  in93 ( +  in109 ( +  in1110 ( +  in1211 in012))))))  ( <  ( +  in84 ( +  in98 ( +  in109 ( +  in1110 ( +  in1211 in012))))) ( +  in94 ( +  in109 ( +  in1110 ( +  in1211 in012))))))  ( <  ( +  in85 ( +  in98 ( +  in109 ( +  in1110 ( +  in1211 in012))))) ( +  in95 ( +  in109 ( +  in1110 ( +  in1211 in012))))))  ( <  ( +  in86 ( +  in98 ( +  in109 ( +  in1110 ( +  in1211 in012))))) ( +  in96 ( +  in109 ( +  in1110 ( +  in1211 in012))))))  ( <  ( +  in87 ( +  in98 ( +  in109 ( +  in1110 ( +  in1211 in012))))) ( +  in97 ( +  in109 ( +  in1110 ( +  in1211 in012))))))  ( <  ( +  in82 ( +  in98 ( +  in109 ( +  in1110 ( +  in1211 in012))))) ( +  in81 ( +  in98 ( +  in109 ( +  in1110 ( +  in1211 in012)))))))  ( <  ( +  in83 ( +  in98 ( +  in109 ( +  in1110 ( +  in1211 in012))))) ( +  in82 ( +  in98 ( +  in109 ( +  in1110 ( +  in1211 in012)))))))  ( <  ( +  in84 ( +  in98 ( +  in109 ( +  in1110 ( +  in1211 in012))))) ( +  in83 ( +  in98 ( +  in109 ( +  in1110 ( +  in1211 in012)))))))  ( <  ( +  in85 ( +  in98 ( +  in109 ( +  in1110 ( +  in1211 in012))))) ( +  in84 ( +  in98 ( +  in109 ( +  in1110 ( +  in1211 in012)))))))  ( <  ( +  in86 ( +  in98 ( +  in109 ( +  in1110 ( +  in1211 in012))))) ( +  in85 ( +  in98 ( +  in109 ( +  in1110 ( +  in1211 in012)))))))  ( <  ( +  in87 ( +  in98 ( +  in109 ( +  in1110 ( +  in1211 in012))))) ( +  in86 ( +  in98 ( +  in109 ( +  in1110 ( +  in1211 in012)))))))  ( <  ( +  in71 ( +  in87 ( +  in98 ( +  in109 ( +  in1110 ( +  in1211 in012)))))) ( +  in81 ( +  in98 ( +  in109 ( +  in1110 ( +  in1211 in012)))))))  ( <  ( +  in72 ( +  in87 ( +  in98 ( +  in109 ( +  in1110 ( +  in1211 in012)))))) ( +  in82 ( +  in98 ( +  in109 ( +  in1110 ( +  in1211 in012)))))))  ( <  ( +  in73 ( +  in87 ( +  in98 ( +  in109 ( +  in1110 ( +  in1211 in012)))))) ( +  in83 ( +  in98 ( +  in109 ( +  in1110 ( +  in1211 in012)))))))  ( <  ( +  in74 ( +  in87 ( +  in98 ( +  in109 ( +  in1110 ( +  in1211 in012)))))) ( +  in84 ( +  in98 ( +  in109 ( +  in1110 ( +  in1211 in012)))))))  ( <  ( +  in75 ( +  in87 ( +  in98 ( +  in109 ( +  in1110 ( +  in1211 in012)))))) ( +  in85 ( +  in98 ( +  in109 ( +  in1110 ( +  in1211 in012)))))))  ( <  ( +  in76 ( +  in87 ( +  in98 ( +  in109 ( +  in1110 ( +  in1211 in012)))))) ( +  in86 ( +  in98 ( +  in109 ( +  in1110 ( +  in1211 in012)))))))  ( <  ( +  in72 ( +  in87 ( +  in98 ( +  in109 ( +  in1110 ( +  in1211 in012)))))) ( +  in71 ( +  in87 ( +  in98 ( +  in109 ( +  in1110 ( +  in1211 in012))))))))  ( <  ( +  in73 ( +  in87 ( +  in98 ( +  in109 ( +  in1110 ( +  in1211 in012)))))) ( +  in72 ( +  in87 ( +  in98 ( +  in109 ( +  in1110 ( +  in1211 in012))))))))  ( <  ( +  in74 ( +  in87 ( +  in98 ( +  in109 ( +  in1110 ( +  in1211 in012)))))) ( +  in73 ( +  in87 ( +  in98 ( +  in109 ( +  in1110 ( +  in1211 in012))))))))  ( <  ( +  in75 ( +  in87 ( +  in98 ( +  in109 ( +  in1110 ( +  in1211 in012)))))) ( +  in74 ( +  in87 ( +  in98 ( +  in109 ( +  in1110 ( +  in1211 in012))))))))  ( <  ( +  in76 ( +  in87 ( +  in98 ( +  in109 ( +  in1110 ( +  in1211 in012)))))) ( +  in75 ( +  in87 ( +  in98 ( +  in109 ( +  in1110 ( +  in1211 in012))))))))  ( <  ( +  in61 ( +  in76 ( +  in87 ( +  in98 ( +  in109 ( +  in1110 ( +  in1211 in012))))))) ( +  in71 ( +  in87 ( +  in98 ( +  in109 ( +  in1110 ( +  in1211 in012))))))))  ( <  ( +  in62 ( +  in76 ( +  in87 ( +  in98 ( +  in109 ( +  in1110 ( +  in1211 in012))))))) ( +  in72 ( +  in87 ( +  in98 ( +  in109 ( +  in1110 ( +  in1211 in012))))))))  ( <  ( +  in63 ( +  in76 ( +  in87 ( +  in98 ( +  in109 ( +  in1110 ( +  in1211 in012))))))) ( +  in73 ( +  in87 ( +  in98 ( +  in109 ( +  in1110 ( +  in1211 in012))))))))  ( <  ( +  in64 ( +  in76 ( +  in87 ( +  in98 ( +  in109 ( +  in1110 ( +  in1211 in012))))))) ( +  in74 ( +  in87 ( +  in98 ( +  in109 ( +  in1110 ( +  in1211 in012))))))))  ( <  ( +  in65 ( +  in76 ( +  in87 ( +  in98 ( +  in109 ( +  in1110 ( +  in1211 in012))))))) ( +  in75 ( +  in87 ( +  in98 ( +  in109 ( +  in1110 ( +  in1211 in012))))))))  ( <  ( +  in62 ( +  in76 ( +  in87 ( +  in98 ( +  in109 ( +  in1110 ( +  in1211 in012))))))) ( +  in61 ( +  in76 ( +  in87 ( +  in98 ( +  in109 ( +  in1110 ( +  in1211 in012)))))))))  ( <  ( +  in63 ( +  in76 ( +  in87 ( +  in98 ( +  in109 ( +  in1110 ( +  in1211 in012))))))) ( +  in62 ( +  in76 ( +  in87 ( +  in98 ( +  in109 ( +  in1110 ( +  in1211 in012)))))))))  ( <  ( +  in64 ( +  in76 ( +  in87 ( +  in98 ( +  in109 ( +  in1110 ( +  in1211 in012))))))) ( +  in63 ( +  in76 ( +  in87 ( +  in98 ( +  in109 ( +  in1110 ( +  in1211 in012)))))))))  ( <  ( +  in65 ( +  in76 ( +  in87 ( +  in98 ( +  in109 ( +  in1110 ( +  in1211 in012))))))) ( +  in64 ( +  in76 ( +  in87 ( +  in98 ( +  in109 ( +  in1110 ( +  in1211 in012)))))))))  ( <  ( +  in51 ( +  in65 ( +  in76 ( +  in87 ( +  in98 ( +  in109 ( +  in1110 ( +  in1211 in012)))))))) ( +  in61 ( +  in76 ( +  in87 ( +  in98 ( +  in109 ( +  in1110 ( +  in1211 in012)))))))))  ( <  ( +  in52 ( +  in65 ( +  in76 ( +  in87 ( +  in98 ( +  in109 ( +  in1110 ( +  in1211 in012)))))))) ( +  in62 ( +  in76 ( +  in87 ( +  in98 ( +  in109 ( +  in1110 ( +  in1211 in012)))))))))  ( <  ( +  in53 ( +  in65 ( +  in76 ( +  in87 ( +  in98 ( +  in109 ( +  in1110 ( +  in1211 in012)))))))) ( +  in63 ( +  in76 ( +  in87 ( +  in98 ( +  in109 ( +  in1110 ( +  in1211 in012)))))))))  ( <  ( +  in54 ( +  in65 ( +  in76 ( +  in87 ( +  in98 ( +  in109 ( +  in1110 ( +  in1211 in012)))))))) ( +  in64 ( +  in76 ( +  in87 ( +  in98 ( +  in109 ( +  in1110 ( +  in1211 in012)))))))))  ( <  ( +  in52 ( +  in65 ( +  in76 ( +  in87 ( +  in98 ( +  in109 ( +  in1110 ( +  in1211 in012)))))))) ( +  in51 ( +  in65 ( +  in76 ( +  in87 ( +  in98 ( +  in109 ( +  in1110 ( +  in1211 in012))))))))))  ( <  ( +  in53 ( +  in65 ( +  in76 ( +  in87 ( +  in98 ( +  in109 ( +  in1110 ( +  in1211 in012)))))))) ( +  in52 ( +  in65 ( +  in76 ( +  in87 ( +  in98 ( +  in109 ( +  in1110 ( +  in1211 in012))))))))))  ( <  ( +  in54 ( +  in65 ( +  in76 ( +  in87 ( +  in98 ( +  in109 ( +  in1110 ( +  in1211 in012)))))))) ( +  in53 ( +  in65 ( +  in76 ( +  in87 ( +  in98 ( +  in109 ( +  in1110 ( +  in1211 in012))))))))))  ( <  ( +  in41 ( +  in54 ( +  in65 ( +  in76 ( +  in87 ( +  in98 ( +  in109 ( +  in1110 ( +  in1211 in012))))))))) ( +  in51 ( +  in65 ( +  in76 ( +  in87 ( +  in98 ( +  in109 ( +  in1110 ( +  in1211 in012))))))))))  ( <  ( +  in42 ( +  in54 ( +  in65 ( +  in76 ( +  in87 ( +  in98 ( +  in109 ( +  in1110 ( +  in1211 in012))))))))) ( +  in52 ( +  in65 ( +  in76 ( +  in87 ( +  in98 ( +  in109 ( +  in1110 ( +  in1211 in012))))))))))  ( <  ( +  in43 ( +  in54 ( +  in65 ( +  in76 ( +  in87 ( +  in98 ( +  in109 ( +  in1110 ( +  in1211 in012))))))))) ( +  in53 ( +  in65 ( +  in76 ( +  in87 ( +  in98 ( +  in109 ( +  in1110 ( +  in1211 in012))))))))))  ( <  ( +  in42 ( +  in54 ( +  in65 ( +  in76 ( +  in87 ( +  in98 ( +  in109 ( +  in1110 ( +  in1211 in012))))))))) ( +  in41 ( +  in54 ( +  in65 ( +  in76 ( +  in87 ( +  in98 ( +  in109 ( +  in1110 ( +  in1211 in012)))))))))))  ( <  ( +  in43 ( +  in54 ( +  in65 ( +  in76 ( +  in87 ( +  in98 ( +  in109 ( +  in1110 ( +  in1211 in012))))))))) ( +  in42 ( +  in54 ( +  in65 ( +  in76 ( +  in87 ( +  in98 ( +  in109 ( +  in1110 ( +  in1211 in012)))))))))))  ( <  ( +  in31 ( +  in43 ( +  in54 ( +  in65 ( +  in76 ( +  in87 ( +  in98 ( +  in109 ( +  in1110 ( +  in1211 in012)))))))))) ( +  in41 ( +  in54 ( +  in65 ( +  in76 ( +  in87 ( +  in98 ( +  in109 ( +  in1110 ( +  in1211 in012)))))))))))  ( <  ( +  in32 ( +  in43 ( +  in54 ( +  in65 ( +  in76 ( +  in87 ( +  in98 ( +  in109 ( +  in1110 ( +  in1211 in012)))))))))) ( +  in42 ( +  in54 ( +  in65 ( +  in76 ( +  in87 ( +  in98 ( +  in109 ( +  in1110 ( +  in1211 in012)))))))))))  ( <  ( +  in32 ( +  in43 ( +  in54 ( +  in65 ( +  in76 ( +  in87 ( +  in98 ( +  in109 ( +  in1110 ( +  in1211 in012)))))))))) ( +  in31 ( +  in43 ( +  in54 ( +  in65 ( +  in76 ( +  in87 ( +  in98 ( +  in109 ( +  in1110 ( +  in1211 in012))))))))))))  ( <  ( +  in21 ( +  in32 ( +  in43 ( +  in54 ( +  in65 ( +  in76 ( +  in87 ( +  in98 ( +  in109 ( +  in1110 ( +  in1211 in012))))))))))) ( +  in31 ( +  in43 ( +  in54 ( +  in65 ( +  in76 ( +  in87 ( +  in98 ( +  in109 ( +  in1110 ( +  in1211 in012)))))))))))))

(check-sat)
(get-model)